Route #1: 1 52 24 21 43 67 69
Route #2: 48 4 59 35 55 33 13 61
Route #3: 62 50 54 20 3 73 31
Route #4: 45 46 34 12 15 22 71
Route #5: 8 51 76 32 7 57 75 37
Route #6: 63 5 29 70 30 49
Route #7: 2 27 65 47 56 38 58 72 17
Route #8: 39 74 28 19 9 36 14 41 68 10
Route #9: 6 60 66 16 18 25 42
Route #10: 53 40 64 11 26 44 23 77
Cost 1272